unknown
(model
; cardinality of BoundSet is 1
(declare-sort BoundSet 0)
; rep: @uc_BoundSet_0
(declare-sort UnboundSet 0)
(define-fun IsGrown ((BOUND_VARIABLE_318 BoundSet)) Bool false)
(define-fun IsInjured ((BOUND_VARIABLE_318 BoundSet)) Bool false)
)
